_includes/sources/helloworld/output.log
bash$ glpsol -m helloworld.m -o output.txt
GLPSOL: GLPK LP/MIP Solver, v4.57
Parameter(s) specified in the command line:
 -m helloworld.m -o output.txt
Reading model section from helloworld.m...
helloworld.m:10: warning: unexpected end of file; missing end statement inserted
10 lines were read
Generating Constraint1...
Generating Constraint2...
Generating Objective...
Model has been successfully generated
GLPK Simplex Optimizer, v4.57
3 rows, 2 columns, 6 non-zeros
Preprocessing...
2 rows, 2 columns, 4 non-zeros
Scaling...
 A: min|aij| =  1.000e+00  max|aij| =  3.000e+00  ratio =  3.000e+00
Problem data seem to be well scaled
Constructing initial basis...
Size of triangular part is 2
*     0: obj =  -0.000000000e+00 inf =   0.000e+00 (2)
*     2: obj =   1.000000000e+01 inf =   0.000e+00 (0)
OPTIMAL LP SOLUTION FOUND
Time used:   0.0 secs
Memory used: 0.1 Mb (102269 bytes)
Writing basic solution to 'output.txt'...
bash$ 
